/* Cplex Data generated on 2017-12-16 */

k = 78;

b = 39;

AtomicConstraints = {
	 <2, 54>,
	 <2, 51>,
	 <2, 48>,
	 <2, 57>,
	 <2, 23>,
	 <2, 58>,
	 <2, 53>,
	 <2, 40>,
	 <2, 49>,
	 <2, 24>,
	 <2, 52>,
	 <2, 25>,
	 <2, 26>,
	 <2, 27>,
	 <2, 28>,
	 <2, 29>,
	 <2, 63>,
	 <2, 71>,
	 <2, 70>,
	 <2, 72>,
	 <2, 61>,
	 <2, 60>,
	 <2, 59>,
	 <2, 73>,
	 <2, 74>,
	 <2, 75>,
	 <2, 76>,
	 <2, 77>,
	 <2, 56>,
	 <2, 50>,
	 <2, 42>,
	 <3, 54>,
	 <3, 51>,
	 <3, 48>,
	 <3, 57>,
	 <3, 23>,
	 <3, 58>,
	 <3, 53>,
	 <3, 40>,
	 <3, 49>,
	 <3, 24>,
	 <3, 52>,
	 <3, 25>,
	 <3, 26>,
	 <3, 27>,
	 <3, 28>,
	 <3, 29>,
	 <3, 63>,
	 <3, 71>,
	 <3, 70>,
	 <3, 72>,
	 <3, 61>,
	 <3, 60>,
	 <3, 59>,
	 <3, 73>,
	 <3, 74>,
	 <3, 75>,
	 <3, 76>,
	 <3, 77>,
	 <3, 56>,
	 <3, 50>,
	 <3, 42>,
	 <4, 54>,
	 <4, 51>,
	 <4, 48>,
	 <4, 57>,
	 <4, 23>,
	 <4, 58>,
	 <4, 53>,
	 <4, 40>,
	 <4, 49>,
	 <4, 24>,
	 <4, 52>,
	 <4, 25>,
	 <4, 26>,
	 <4, 27>,
	 <4, 28>,
	 <4, 29>,
	 <4, 63>,
	 <4, 71>,
	 <4, 70>,
	 <4, 72>,
	 <4, 61>,
	 <4, 60>,
	 <4, 59>,
	 <4, 73>,
	 <4, 74>,
	 <4, 75>,
	 <4, 76>,
	 <4, 77>,
	 <4, 56>,
	 <4, 50>,
	 <4, 42>,
	 <5, 54>,
	 <5, 51>,
	 <5, 48>,
	 <5, 57>,
	 <5, 23>,
	 <5, 58>,
	 <5, 53>,
	 <5, 40>,
	 <5, 49>,
	 <5, 24>,
	 <5, 52>,
	 <5, 25>,
	 <5, 26>,
	 <5, 27>,
	 <5, 28>,
	 <5, 29>,
	 <5, 63>,
	 <5, 71>,
	 <5, 70>,
	 <5, 72>,
	 <5, 61>,
	 <5, 60>,
	 <5, 59>,
	 <5, 73>,
	 <5, 74>,
	 <5, 75>,
	 <5, 76>,
	 <5, 77>,
	 <5, 56>,
	 <5, 50>,
	 <5, 42>,
	 <6, 54>,
	 <6, 51>,
	 <6, 48>,
	 <6, 57>,
	 <6, 23>,
	 <6, 58>,
	 <6, 53>,
	 <6, 40>,
	 <6, 49>,
	 <6, 24>,
	 <6, 52>,
	 <6, 25>,
	 <6, 26>,
	 <6, 27>,
	 <6, 28>,
	 <6, 29>,
	 <6, 63>,
	 <6, 71>,
	 <6, 70>,
	 <6, 72>,
	 <6, 61>,
	 <6, 60>,
	 <6, 59>,
	 <6, 73>,
	 <6, 74>,
	 <6, 75>,
	 <6, 76>,
	 <6, 77>,
	 <6, 56>,
	 <6, 50>,
	 <6, 42>,
	 <7, 54>,
	 <7, 51>,
	 <7, 48>,
	 <7, 57>,
	 <7, 23>,
	 <7, 58>,
	 <7, 53>,
	 <7, 40>,
	 <7, 49>,
	 <7, 24>,
	 <7, 52>,
	 <7, 25>,
	 <7, 26>,
	 <7, 27>,
	 <7, 28>,
	 <7, 29>,
	 <7, 63>,
	 <7, 71>,
	 <7, 70>,
	 <7, 72>,
	 <7, 61>,
	 <7, 60>,
	 <7, 59>,
	 <7, 73>,
	 <7, 74>,
	 <7, 75>,
	 <7, 76>,
	 <7, 77>,
	 <7, 56>,
	 <7, 50>,
	 <7, 42>,
	 <8, 54>,
	 <8, 51>,
	 <8, 48>,
	 <8, 57>,
	 <8, 23>,
	 <8, 58>,
	 <8, 53>,
	 <8, 40>,
	 <8, 49>,
	 <8, 24>,
	 <8, 52>,
	 <8, 25>,
	 <8, 26>,
	 <8, 27>,
	 <8, 28>,
	 <8, 29>,
	 <8, 63>,
	 <8, 71>,
	 <8, 70>,
	 <8, 72>,
	 <8, 61>,
	 <8, 60>,
	 <8, 59>,
	 <8, 73>,
	 <8, 74>,
	 <8, 75>,
	 <8, 76>,
	 <8, 77>,
	 <8, 56>,
	 <8, 50>,
	 <8, 42>,
	 <9, 54>,
	 <9, 51>,
	 <9, 48>,
	 <9, 57>,
	 <9, 23>,
	 <9, 58>,
	 <9, 53>,
	 <9, 40>,
	 <9, 49>,
	 <9, 24>,
	 <9, 52>,
	 <9, 25>,
	 <9, 26>,
	 <9, 27>,
	 <9, 28>,
	 <9, 29>,
	 <9, 63>,
	 <9, 71>,
	 <9, 70>,
	 <9, 72>,
	 <9, 61>,
	 <9, 60>,
	 <9, 59>,
	 <9, 73>,
	 <9, 74>,
	 <9, 75>,
	 <9, 76>,
	 <9, 77>,
	 <9, 56>,
	 <9, 50>,
	 <9, 42>,
	 <10, 54>,
	 <10, 51>,
	 <10, 48>,
	 <10, 57>,
	 <10, 23>,
	 <10, 58>,
	 <10, 53>,
	 <10, 40>,
	 <10, 49>,
	 <10, 24>,
	 <10, 52>,
	 <10, 25>,
	 <10, 26>,
	 <10, 27>,
	 <10, 28>,
	 <10, 29>,
	 <10, 63>,
	 <10, 71>,
	 <10, 70>,
	 <10, 72>,
	 <10, 61>,
	 <10, 60>,
	 <10, 59>,
	 <10, 73>,
	 <10, 74>,
	 <10, 75>,
	 <10, 76>,
	 <10, 77>,
	 <10, 56>,
	 <10, 50>,
	 <10, 42>,
	 <11, 54>,
	 <11, 51>,
	 <11, 48>,
	 <11, 57>,
	 <11, 23>,
	 <11, 58>,
	 <11, 53>,
	 <11, 40>,
	 <11, 49>,
	 <11, 24>,
	 <11, 52>,
	 <11, 25>,
	 <11, 26>,
	 <11, 27>,
	 <11, 28>,
	 <11, 29>,
	 <11, 63>,
	 <11, 71>,
	 <11, 70>,
	 <11, 72>,
	 <11, 61>,
	 <11, 60>,
	 <11, 59>,
	 <11, 73>,
	 <11, 74>,
	 <11, 75>,
	 <11, 76>,
	 <11, 77>,
	 <11, 56>,
	 <11, 50>,
	 <11, 42>,
	 <1, 54>,
	 <1, 51>,
	 <1, 48>,
	 <1, 57>,
	 <1, 23>,
	 <1, 58>,
	 <1, 53>,
	 <1, 40>,
	 <1, 49>,
	 <1, 24>,
	 <1, 52>,
	 <1, 25>,
	 <1, 26>,
	 <1, 27>,
	 <1, 28>,
	 <1, 29>,
	 <1, 64>,
	 <1, 34>,
	 <1, 35>,
	 <1, 36>,
	 <1, 65>,
	 <1, 66>,
	 <1, 67>,
	 <1, 68>,
	 <1, 69>,
	 <1, 62>,
	 <1, 37>,
	 <1, 38>,
	 <1, 63>,
	 <1, 71>,
	 <1, 70>,
	 <1, 72>,
	 <1, 61>,
	 <1, 60>,
	 <1, 59>,
	 <1, 73>,
	 <1, 74>,
	 <1, 75>,
	 <1, 76>,
	 <1, 77>,
	 <1, 56>,
	 <1, 50>,
	 <1, 42>,
	 <13, 1>,
	 <13, 12>,
	 <13, 14>,
	 <13, 54>,
	 <13, 51>,
	 <13, 48>,
	 <13, 57>,
	 <13, 23>,
	 <13, 58>,
	 <13, 53>,
	 <13, 40>,
	 <13, 49>,
	 <13, 24>,
	 <13, 52>,
	 <13, 25>,
	 <13, 26>,
	 <13, 27>,
	 <13, 28>,
	 <13, 29>,
	 <13, 64>,
	 <13, 34>,
	 <13, 35>,
	 <13, 36>,
	 <13, 65>,
	 <13, 66>,
	 <13, 67>,
	 <13, 68>,
	 <13, 69>,
	 <13, 62>,
	 <13, 37>,
	 <13, 38>,
	 <13, 63>,
	 <13, 71>,
	 <13, 70>,
	 <13, 72>,
	 <13, 61>,
	 <13, 60>,
	 <13, 59>,
	 <13, 73>,
	 <13, 74>,
	 <13, 75>,
	 <13, 76>,
	 <13, 77>,
	 <13, 56>,
	 <13, 50>,
	 <13, 42>,
	 <12, 54>,
	 <12, 51>,
	 <12, 48>,
	 <12, 57>,
	 <12, 23>,
	 <12, 58>,
	 <12, 53>,
	 <12, 40>,
	 <12, 49>,
	 <12, 24>,
	 <12, 52>,
	 <12, 25>,
	 <12, 26>,
	 <12, 27>,
	 <12, 28>,
	 <12, 29>,
	 <12, 64>,
	 <12, 34>,
	 <12, 35>,
	 <12, 36>,
	 <12, 65>,
	 <12, 66>,
	 <12, 67>,
	 <12, 68>,
	 <12, 69>,
	 <12, 62>,
	 <12, 37>,
	 <12, 38>,
	 <12, 63>,
	 <12, 71>,
	 <12, 70>,
	 <12, 72>,
	 <12, 61>,
	 <12, 60>,
	 <12, 59>,
	 <12, 73>,
	 <12, 74>,
	 <12, 75>,
	 <12, 76>,
	 <12, 77>,
	 <12, 56>,
	 <12, 50>,
	 <12, 42>,
	 <15, 12>,
	 <15, 14>,
	 <15, 18>,
	 <15, 19>,
	 <15, 54>,
	 <15, 51>,
	 <15, 48>,
	 <15, 57>,
	 <15, 23>,
	 <15, 58>,
	 <15, 53>,
	 <15, 40>,
	 <15, 49>,
	 <15, 24>,
	 <15, 52>,
	 <15, 25>,
	 <15, 26>,
	 <15, 27>,
	 <15, 28>,
	 <15, 29>,
	 <15, 34>,
	 <15, 35>,
	 <15, 36>,
	 <15, 65>,
	 <15, 66>,
	 <15, 67>,
	 <15, 68>,
	 <15, 69>,
	 <15, 62>,
	 <15, 37>,
	 <15, 38>,
	 <15, 63>,
	 <15, 71>,
	 <15, 70>,
	 <15, 72>,
	 <15, 61>,
	 <15, 60>,
	 <15, 59>,
	 <15, 73>,
	 <15, 74>,
	 <15, 75>,
	 <15, 76>,
	 <15, 77>,
	 <15, 56>,
	 <15, 50>,
	 <15, 42>,
	 <16, 14>,
	 <16, 18>,
	 <16, 19>,
	 <16, 55>,
	 <16, 54>,
	 <16, 51>,
	 <16, 48>,
	 <16, 57>,
	 <16, 23>,
	 <16, 58>,
	 <16, 53>,
	 <16, 40>,
	 <16, 49>,
	 <16, 24>,
	 <16, 52>,
	 <16, 25>,
	 <16, 26>,
	 <16, 27>,
	 <16, 28>,
	 <16, 29>,
	 <16, 34>,
	 <16, 35>,
	 <16, 36>,
	 <16, 66>,
	 <16, 67>,
	 <16, 68>,
	 <16, 69>,
	 <16, 62>,
	 <16, 37>,
	 <16, 38>,
	 <16, 63>,
	 <16, 71>,
	 <16, 70>,
	 <16, 72>,
	 <16, 61>,
	 <16, 60>,
	 <16, 59>,
	 <16, 73>,
	 <16, 74>,
	 <16, 75>,
	 <16, 76>,
	 <16, 77>,
	 <16, 56>,
	 <16, 50>,
	 <16, 42>,
	 <17, 19>,
	 <17, 55>,
	 <17, 20>,
	 <17, 21>,
	 <17, 54>,
	 <17, 51>,
	 <17, 48>,
	 <17, 57>,
	 <17, 23>,
	 <17, 58>,
	 <17, 53>,
	 <17, 40>,
	 <17, 49>,
	 <17, 24>,
	 <17, 52>,
	 <17, 25>,
	 <17, 26>,
	 <17, 27>,
	 <17, 28>,
	 <17, 29>,
	 <17, 34>,
	 <17, 35>,
	 <17, 36>,
	 <17, 68>,
	 <17, 69>,
	 <17, 62>,
	 <17, 63>,
	 <17, 71>,
	 <17, 70>,
	 <17, 72>,
	 <17, 61>,
	 <17, 60>,
	 <17, 59>,
	 <17, 73>,
	 <17, 74>,
	 <17, 75>,
	 <17, 76>,
	 <17, 77>,
	 <17, 56>,
	 <17, 50>,
	 <17, 42>,
	 <14, 54>,
	 <14, 51>,
	 <14, 48>,
	 <14, 57>,
	 <14, 23>,
	 <14, 58>,
	 <14, 53>,
	 <14, 40>,
	 <14, 49>,
	 <14, 24>,
	 <14, 52>,
	 <14, 25>,
	 <14, 26>,
	 <14, 27>,
	 <14, 28>,
	 <14, 29>,
	 <14, 34>,
	 <14, 35>,
	 <14, 36>,
	 <14, 65>,
	 <14, 66>,
	 <14, 67>,
	 <14, 68>,
	 <14, 69>,
	 <14, 62>,
	 <14, 37>,
	 <14, 38>,
	 <14, 63>,
	 <14, 71>,
	 <14, 70>,
	 <14, 72>,
	 <14, 61>,
	 <14, 60>,
	 <14, 59>,
	 <14, 73>,
	 <14, 74>,
	 <14, 75>,
	 <14, 76>,
	 <14, 77>,
	 <14, 56>,
	 <14, 50>,
	 <14, 42>,
	 <18, 54>,
	 <18, 51>,
	 <18, 48>,
	 <18, 57>,
	 <18, 23>,
	 <18, 58>,
	 <18, 53>,
	 <18, 40>,
	 <18, 49>,
	 <18, 24>,
	 <18, 52>,
	 <18, 25>,
	 <18, 26>,
	 <18, 27>,
	 <18, 28>,
	 <18, 29>,
	 <18, 34>,
	 <18, 35>,
	 <18, 36>,
	 <18, 66>,
	 <18, 67>,
	 <18, 68>,
	 <18, 69>,
	 <18, 62>,
	 <18, 37>,
	 <18, 38>,
	 <18, 63>,
	 <18, 71>,
	 <18, 70>,
	 <18, 72>,
	 <18, 61>,
	 <18, 60>,
	 <18, 59>,
	 <18, 73>,
	 <18, 74>,
	 <18, 75>,
	 <18, 76>,
	 <18, 77>,
	 <18, 56>,
	 <18, 50>,
	 <18, 42>,
	 <19, 54>,
	 <19, 51>,
	 <19, 48>,
	 <19, 57>,
	 <19, 23>,
	 <19, 58>,
	 <19, 53>,
	 <19, 40>,
	 <19, 49>,
	 <19, 24>,
	 <19, 52>,
	 <19, 25>,
	 <19, 26>,
	 <19, 27>,
	 <19, 28>,
	 <19, 29>,
	 <19, 34>,
	 <19, 35>,
	 <19, 36>,
	 <19, 67>,
	 <19, 68>,
	 <19, 69>,
	 <19, 62>,
	 <19, 38>,
	 <19, 63>,
	 <19, 71>,
	 <19, 70>,
	 <19, 72>,
	 <19, 61>,
	 <19, 60>,
	 <19, 59>,
	 <19, 73>,
	 <19, 74>,
	 <19, 75>,
	 <19, 76>,
	 <19, 77>,
	 <19, 56>,
	 <19, 50>,
	 <19, 42>,
	 <55, 54>,
	 <55, 51>,
	 <55, 48>,
	 <55, 57>,
	 <55, 23>,
	 <55, 58>,
	 <55, 53>,
	 <55, 40>,
	 <55, 49>,
	 <55, 24>,
	 <55, 52>,
	 <55, 25>,
	 <55, 26>,
	 <55, 27>,
	 <55, 28>,
	 <55, 29>,
	 <55, 34>,
	 <55, 35>,
	 <55, 36>,
	 <55, 68>,
	 <55, 69>,
	 <55, 62>,
	 <55, 63>,
	 <55, 71>,
	 <55, 70>,
	 <55, 72>,
	 <55, 61>,
	 <55, 60>,
	 <55, 59>,
	 <55, 73>,
	 <55, 74>,
	 <55, 75>,
	 <55, 76>,
	 <55, 77>,
	 <55, 56>,
	 <55, 50>,
	 <55, 42>,
	 <20, 54>,
	 <20, 51>,
	 <20, 48>,
	 <20, 57>,
	 <20, 23>,
	 <20, 58>,
	 <20, 53>,
	 <20, 40>,
	 <20, 49>,
	 <20, 24>,
	 <20, 52>,
	 <20, 25>,
	 <20, 26>,
	 <20, 27>,
	 <20, 28>,
	 <20, 29>,
	 <20, 35>,
	 <20, 36>,
	 <20, 69>,
	 <20, 62>,
	 <20, 63>,
	 <20, 71>,
	 <20, 70>,
	 <20, 72>,
	 <20, 61>,
	 <20, 60>,
	 <20, 59>,
	 <20, 73>,
	 <20, 74>,
	 <20, 75>,
	 <20, 76>,
	 <20, 77>,
	 <20, 56>,
	 <20, 50>,
	 <20, 42>,
	 <21, 54>,
	 <21, 51>,
	 <21, 48>,
	 <21, 57>,
	 <21, 23>,
	 <21, 58>,
	 <21, 53>,
	 <21, 40>,
	 <21, 49>,
	 <21, 24>,
	 <21, 52>,
	 <21, 25>,
	 <21, 26>,
	 <21, 27>,
	 <21, 28>,
	 <21, 29>,
	 <21, 36>,
	 <21, 69>,
	 <21, 62>,
	 <21, 63>,
	 <21, 71>,
	 <21, 70>,
	 <21, 72>,
	 <21, 61>,
	 <21, 60>,
	 <21, 59>,
	 <21, 73>,
	 <21, 74>,
	 <21, 75>,
	 <21, 76>,
	 <21, 77>,
	 <21, 56>,
	 <21, 50>,
	 <21, 42>,
	 <22, 54>,
	 <22, 51>,
	 <22, 48>,
	 <22, 57>,
	 <22, 23>,
	 <22, 58>,
	 <22, 53>,
	 <22, 40>,
	 <22, 49>,
	 <22, 24>,
	 <22, 52>,
	 <22, 25>,
	 <22, 26>,
	 <22, 27>,
	 <22, 28>,
	 <22, 29>,
	 <22, 63>,
	 <22, 71>,
	 <22, 70>,
	 <22, 72>,
	 <22, 61>,
	 <22, 60>,
	 <22, 59>,
	 <22, 73>,
	 <22, 74>,
	 <22, 75>,
	 <22, 76>,
	 <22, 77>,
	 <22, 56>,
	 <22, 50>,
	 <22, 42>,
	 <54, 52>,
	 <54, 25>,
	 <54, 26>,
	 <54, 27>,
	 <54, 28>,
	 <54, 29>,
	 <51, 54>,
	 <51, 52>,
	 <51, 25>,
	 <51, 26>,
	 <51, 27>,
	 <51, 28>,
	 <51, 29>,
	 <48, 54>,
	 <48, 51>,
	 <48, 52>,
	 <48, 25>,
	 <48, 26>,
	 <48, 27>,
	 <48, 28>,
	 <48, 29>,
	 <57, 54>,
	 <57, 51>,
	 <57, 48>,
	 <57, 52>,
	 <57, 25>,
	 <57, 26>,
	 <57, 27>,
	 <57, 28>,
	 <57, 29>,
	 <23, 54>,
	 <23, 51>,
	 <23, 48>,
	 <23, 57>,
	 <23, 52>,
	 <23, 25>,
	 <23, 26>,
	 <23, 27>,
	 <23, 28>,
	 <23, 29>,
	 <58, 54>,
	 <58, 51>,
	 <58, 48>,
	 <58, 57>,
	 <58, 23>,
	 <58, 52>,
	 <58, 25>,
	 <58, 26>,
	 <58, 27>,
	 <58, 28>,
	 <58, 29>,
	 <58, 50>,
	 <53, 54>,
	 <53, 51>,
	 <53, 48>,
	 <53, 57>,
	 <53, 23>,
	 <53, 58>,
	 <53, 52>,
	 <53, 25>,
	 <53, 26>,
	 <53, 27>,
	 <53, 28>,
	 <53, 29>,
	 <53, 63>,
	 <53, 39>,
	 <53, 50>,
	 <53, 42>,
	 <40, 54>,
	 <40, 51>,
	 <40, 48>,
	 <40, 57>,
	 <40, 23>,
	 <40, 58>,
	 <40, 53>,
	 <40, 52>,
	 <40, 25>,
	 <40, 26>,
	 <40, 27>,
	 <40, 28>,
	 <40, 29>,
	 <40, 63>,
	 <40, 39>,
	 <40, 71>,
	 <40, 70>,
	 <40, 72>,
	 <40, 73>,
	 <40, 74>,
	 <40, 50>,
	 <40, 42>,
	 <49, 54>,
	 <49, 51>,
	 <49, 48>,
	 <49, 57>,
	 <49, 23>,
	 <49, 58>,
	 <49, 53>,
	 <49, 40>,
	 <49, 52>,
	 <49, 25>,
	 <49, 26>,
	 <49, 27>,
	 <49, 28>,
	 <49, 29>,
	 <49, 63>,
	 <49, 39>,
	 <49, 71>,
	 <49, 70>,
	 <49, 72>,
	 <49, 78>,
	 <49, 61>,
	 <49, 73>,
	 <49, 74>,
	 <49, 75>,
	 <49, 76>,
	 <49, 77>,
	 <49, 50>,
	 <49, 42>,
	 <24, 54>,
	 <24, 51>,
	 <24, 48>,
	 <24, 57>,
	 <24, 23>,
	 <24, 58>,
	 <24, 53>,
	 <24, 40>,
	 <24, 49>,
	 <24, 52>,
	 <24, 25>,
	 <24, 26>,
	 <24, 27>,
	 <24, 28>,
	 <24, 29>,
	 <24, 63>,
	 <24, 39>,
	 <24, 71>,
	 <24, 70>,
	 <24, 72>,
	 <24, 78>,
	 <24, 61>,
	 <24, 60>,
	 <24, 59>,
	 <24, 73>,
	 <24, 74>,
	 <24, 75>,
	 <24, 76>,
	 <24, 77>,
	 <24, 56>,
	 <24, 50>,
	 <24, 42>,
	 <25, 52>,
	 <26, 52>,
	 <26, 25>,
	 <27, 52>,
	 <27, 25>,
	 <27, 26>,
	 <28, 52>,
	 <28, 25>,
	 <28, 26>,
	 <28, 27>,
	 <29, 52>,
	 <29, 25>,
	 <29, 26>,
	 <29, 27>,
	 <29, 28>,
	 <45, 43>,
	 <45, 30>,
	 <45, 31>,
	 <45, 32>,
	 <45, 46>,
	 <45, 47>,
	 <45, 33>,
	 <45, 59>,
	 <43, 30>,
	 <43, 31>,
	 <43, 32>,
	 <43, 60>,
	 <43, 59>,
	 <30, 31>,
	 <30, 32>,
	 <30, 60>,
	 <30, 59>,
	 <31, 32>,
	 <31, 60>,
	 <31, 59>,
	 <32, 60>,
	 <32, 59>,
	 <44, 45>,
	 <44, 43>,
	 <44, 30>,
	 <44, 31>,
	 <44, 32>,
	 <44, 46>,
	 <44, 47>,
	 <44, 33>,
	 <46, 43>,
	 <46, 30>,
	 <46, 31>,
	 <46, 32>,
	 <46, 47>,
	 <46, 33>,
	 <47, 43>,
	 <47, 30>,
	 <47, 31>,
	 <47, 32>,
	 <47, 33>,
	 <33, 30>,
	 <33, 31>,
	 <33, 32>,
	 <33, 59>,
	 <41, 45>,
	 <41, 43>,
	 <41, 30>,
	 <41, 31>,
	 <41, 32>,
	 <41, 46>,
	 <41, 47>,
	 <41, 33>,
	 <41, 59>,
	 <34, 52>,
	 <35, 52>,
	 <36, 52>,
	 <64, 52>,
	 <64, 34>,
	 <64, 37>,
	 <64, 38>,
	 <65, 52>,
	 <65, 34>,
	 <65, 35>,
	 <65, 37>,
	 <65, 38>,
	 <66, 52>,
	 <66, 34>,
	 <66, 35>,
	 <66, 36>,
	 <66, 38>,
	 <67, 52>,
	 <67, 34>,
	 <67, 35>,
	 <67, 36>,
	 <68, 52>,
	 <68, 35>,
	 <68, 36>,
	 <69, 52>,
	 <69, 36>,
	 <62, 52>,
	 <63, 39>,
	 <63, 50>,
	 <63, 42>,
	 <73, 39>,
	 <73, 71>,
	 <73, 50>,
	 <73, 42>,
	 <74, 39>,
	 <74, 71>,
	 <74, 70>,
	 <74, 42>,
	 <75, 39>,
	 <75, 71>,
	 <75, 70>,
	 <75, 72>,
	 <76, 71>,
	 <76, 70>,
	 <76, 72>,
	 <76, 78>,
	 <77, 70>,
	 <77, 72>,
	 <77, 78>,
	 <77, 61>,
	 <56, 72>,
	 <56, 78>,
	 <56, 61>,
	 <56, 60>,
	 }; 

SoftAtomicConstraints = {
	 <22, 2>,
	 <2, 3>,
	 <3, 4>,
	 <4, 5>,
	 <5, 6>,
	 <6, 7>,
	 <7, 8>,
	 <8, 9>,
	 <9, 10>,
	 <10, 11>,
	 <1, 12>,
	 <12, 14>,
	 <13, 15>,
	 <15, 16>,
	 <16, 17>,
	 <14, 18>,
	 <18, 19>,
	 <55, 20>,
	 <20, 21>,
	 <21, 22>,
	 <43, 33>,
	 <38, 34>,
	 <34, 35>,
	 <35, 36>,
	 <37, 38>,
	 <42, 39>,
	 <50, 42>,
	 <41, 44>,
	 <19, 55>,
	 <77, 56>,
	 <60, 59>,
	 <61, 60>,
	 <78, 61>,
	 <69, 62>,
	 <64, 65>,
	 <65, 66>,
	 <66, 67>,
	 <67, 68>,
	 <68, 69>,
	 <71, 70>,
	 <39, 71>,
	 <70, 72>,
	 <63, 73>,
	 <73, 74>,
	 <74, 75>,
	 <75, 76>,
	 <76, 77>,
	 <72, 78>,
	 }; 

DisjunctiveConstraints = {
	 <2, 22, 2, 3>,
	 <3, 2, 3, 4>,
	 <4, 3, 4, 5>,
	 <5, 4, 5, 6>,
	 <6, 5, 6, 7>,
	 <7, 6, 7, 8>,
	 <8, 7, 8, 9>,
	 <9, 8, 9, 10>,
	 <10, 9, 10, 11>,
	 <11, 69, 30, 11>,
	 <1, 25, 1, 64>,
	 <13, 40, 13, 1>,
	 <13, 25, 13, 64>,
	 <12, 1, 12, 14>,
	 <12, 65, 12, 26>,
	 <15, 13, 15, 16>,
	 <15, 53, 15, 14>,
	 <15, 66, 15, 27>,
	 <15, 76, 15, 37>,
	 <16, 15, 16, 17>,
	 <16, 57, 16, 18>,
	 <16, 67, 16, 28>,
	 <16, 77, 16, 38>,
	 <17, 35, 17, 74>,
	 <17, 62, 17, 23>,
	 <14, 12, 14, 18>,
	 <14, 66, 14, 27>,
	 <14, 76, 14, 37>,
	 <18, 14, 18, 19>,
	 <18, 34, 18, 73>,
	 <18, 67, 18, 28>,
	 <18, 77, 18, 38>,
	 <19, 18, 19, 55>,
	 <19, 34, 19, 73>,
	 <19, 35, 19, 74>,
	 <19, 68, 19, 29>,
	 <55, 19, 55, 20>,
	 <55, 35, 55, 74>,
	 <55, 36, 55, 75>,
	 <55, 62, 55, 23>,
	 <20, 55, 20, 21>,
	 <20, 36, 20, 75>,
	 <20, 69, 20, 30>,
	 <20, 62, 20, 23>,
	 <21, 20, 21, 22>,
	 <22, 21, 22, 2>,
	 <54, 52, 13, 54>,
	 <54, 25, 64, 54>,
	 <54, 26, 65, 54>,
	 <54, 27, 66, 54>,
	 <54, 28, 67, 54>,
	 <51, 52, 13, 51>,
	 <51, 25, 64, 51>,
	 <51, 26, 65, 51>,
	 <51, 27, 66, 51>,
	 <51, 28, 67, 51>,
	 <51, 29, 68, 51>,
	 <48, 25, 64, 48>,
	 <48, 26, 65, 48>,
	 <48, 27, 66, 48>,
	 <48, 28, 67, 48>,
	 <48, 29, 68, 48>,
	 <57, 25, 64, 57>,
	 <57, 26, 65, 57>,
	 <57, 27, 66, 57>,
	 <57, 28, 67, 57>,
	 <57, 29, 68, 57>,
	 <23, 25, 64, 23>,
	 <23, 26, 65, 23>,
	 <23, 27, 66, 23>,
	 <23, 28, 67, 23>,
	 <23, 29, 68, 23>,
	 <58, 54, 58, 15>,
	 <58, 51, 58, 12>,
	 <58, 26, 65, 58>,
	 <58, 27, 66, 58>,
	 <58, 28, 67, 58>,
	 <58, 29, 68, 58>,
	 <53, 54, 53, 15>,
	 <53, 51, 53, 12>,
	 <53, 48, 53, 9>,
	 <53, 27, 66, 53>,
	 <53, 28, 67, 53>,
	 <53, 29, 68, 53>,
	 <40, 54, 40, 15>,
	 <40, 51, 40, 12>,
	 <40, 48, 40, 9>,
	 <40, 57, 40, 18>,
	 <40, 28, 67, 40>,
	 <40, 29, 68, 40>,
	 <49, 54, 49, 15>,
	 <49, 51, 49, 12>,
	 <49, 48, 49, 9>,
	 <49, 57, 49, 18>,
	 <49, 29, 68, 49>,
	 <49, 62, 49, 23>,
	 <24, 54, 24, 15>,
	 <24, 51, 24, 12>,
	 <24, 48, 24, 9>,
	 <24, 57, 24, 18>,
	 <24, 62, 24, 23>,
	 <26, 52, 26, 13>,
	 <27, 52, 27, 13>,
	 <28, 52, 28, 13>,
	 <29, 52, 29, 13>,
	 <45, 71, 45, 32>,
	 <45, 70, 45, 31>,
	 <43, 59, 43, 20>,
	 <30, 59, 30, 20>,
	 <31, 59, 31, 20>,
	 <32, 59, 32, 20>,
	 <44, 43, 4, 44>,
	 <44, 30, 69, 44>,
	 <44, 31, 70, 44>,
	 <44, 32, 71, 44>,
	 <46, 43, 4, 46>,
	 <46, 30, 69, 46>,
	 <46, 31, 70, 46>,
	 <46, 32, 71, 46>,
	 <47, 30, 69, 47>,
	 <47, 31, 70, 47>,
	 <47, 32, 71, 47>,
	 <33, 32, 71, 33>,
	 <33, 63, 24, 33>,
	 <33, 50, 11, 33>,
	 <41, 69, 41, 30>,
	 <41, 71, 41, 32>,
	 <41, 70, 41, 31>,
	 <34, 38, 34, 35>,
	 <35, 34, 35, 36>,
	 <64, 76, 64, 37>,
	 <65, 64, 65, 66>,
	 <65, 77, 65, 38>,
	 <66, 34, 66, 73>,
	 <66, 65, 66, 67>,
	 <67, 35, 67, 74>,
	 <67, 66, 67, 68>,
	 <68, 36, 68, 75>,
	 <68, 67, 68, 69>,
	 <69, 68, 69, 62>,
	 <38, 37, 38, 34>,
	 <39, 42, 39, 71>,
	 <71, 39, 71, 70>,
	 <70, 71, 70, 72>,
	 <72, 70, 72, 78>,
	 <78, 72, 78, 61>,
	 <61, 78, 61, 60>,
	 <60, 61, 60, 59>,
	 <73, 63, 73, 74>,
	 <74, 78, 74, 39>,
	 <74, 73, 74, 75>,
	 <75, 74, 75, 76>,
	 <76, 75, 76, 77>,
	 <77, 76, 77, 56>,
	 <56, 78, 56, 39>,
	 <42, 50, 42, 39>,
	 }; 

DirectSuccessors = {
	1,
	12,
	13,
	14,
	15,
	16,
	18,
	64,
	34,
	35,
	36,
	65,
	66,
	67,
	68,
	37,
	38,
	39,
	78,
	 }; 

